Sun 20 May 09:27:49 CEST 2018
CPXPARAM_TimeLimit                               45
CPXPARAM_Threads                                 4
CPXPARAM_MIP_Strategy_CallbackReducedLP          0
Tried aggregator 5 times.
MIP Presolve eliminated 5775 rows and 4268 columns.
MIP Presolve modified 2411 coefficients.
Aggregator did 4699 substitutions.
Reduced MIP has 8963 rows, 9027 columns, and 23507 nonzeros.
Reduced MIP has 8184 binaries, 12 generals, 0 SOSs, and 1917 indicators.
Presolve time = 0.09 sec. (158.29 ticks)
Probing time = 0.24 sec. (86.75 ticks)
Tried aggregator 3 times.
Aggregator did 4324 substitutions.
Reduced MIP has 4639 rows, 4703 columns, and 14859 nonzeros.
Reduced MIP has 3860 binaries, 843 generals, 0 SOSs, and 1917 indicators.
Presolve time = 0.03 sec. (39.44 ticks)
Probing time = 0.06 sec. (31.46 ticks)
Tried aggregator 1 time.
Reduced MIP has 4639 rows, 4703 columns, and 14859 nonzeros.
Reduced MIP has 3860 binaries, 843 generals, 0 SOSs, and 1917 indicators.
Presolve time = 0.02 sec. (14.99 ticks)
Probing time = 0.01 sec. (5.68 ticks)
Clique table members: 165657.
MIP emphasis: balance optimality and feasibility.
MIP search method: dynamic search.
Parallel mode: deterministic, using up to 4 threads.
Root relaxation solution time = 0.02 sec. (18.61 ticks)

        Nodes                                         Cuts/
   Node  Left     Objective  IInf  Best Integer    Best Bound    ItCnt     Gap

      0     0        0.0000  2091                      0.0000      448         
*     0+    0                           19.0000        0.0000           100.00%
      0     0        0.0000  1851       19.0000 Cliques: 1259      729   89.47%
*     0+    0                           12.0000        2.0000            83.33%
      0     0        0.0000  1575       12.0000 Cliques: 1259     1048   83.33%
*     0+    0                            4.0000        2.0000            50.00%
      0     0        cutoff              4.0000        4.0000     1606    0.00%
Elapsed time = 7.28 sec. (7224.01 ticks, tree = 0.01 MB, solutions = 3)

Clique cuts applied:  3777

Root node processing (before b&c):
  Real time             =    7.28 sec. (7225.08 ticks)
Parallel b&c, 4 threads:
  Real time             =    0.00 sec. (0.00 ticks)
  Sync time (average)   =    0.00 sec.
  Wait time (average)   =    0.00 sec.
                          ------------
Total (root+branch&cut) =    7.28 sec. (7225.08 ticks)
   | W
 L | 0 1 2 3 4  5 6 7 
---------------------
 0 | 8 . 9 1 1 10 3 3 
 1 | 8 6 6 1 1 11 3 3 
 2 | 5 5 7 4 4  . 2 2 
 3 | 5 5 7 4 4  . 2 2 
 4 | . . . . .  . . . 
 5 | . . . . .  . . . 
 6 | . . . . .  . . . 
 7 | . . . . .  . . . 
 8 | . . . . .  . . . 
 9 | . . . . .  . . . 
10 | . . . . .  . . . 
11 | . . . . .  . . . 
12 | . . . . .  . . . 
13 | . . . . .  . . . 
14 | . . . . .  . . . 
15 | . . . . .  . . . 
16 | . . . . .  . . . 
17 | . . . . .  . . . 
18 | . . . . .  . . . 

Boxes' corners:       (w,l)
    Box  1 is at 
        top left     (3,0)
        bottom right (4,1)

    Box  2 is at 
        top left     (6,2)
        bottom right (7,3)

    Box  3 is at 
        top left     (6,0)
        bottom right (7,1)

    Box  4 is at 
        top left     (3,2)
        bottom right (4,3)

    Box  5 is at 
        top left     (0,2)
        bottom right (1,3)

    Box  6 is at 
        top left     (1,1)
        bottom right (2,1)

    Box  7 is at 
        top left     (2,2)
        bottom right (2,3)

    Box  8 is at 
        top left     (0,0)
        bottom right (0,1)

    Box  9 is at 
        top left     (2,0)
        bottom right (2,0)

    Box 10 is at 
        top left     (5,0)
        bottom right (5,0)

    Box 11 is at 
        top left     (5,1)
        bottom right (5,1)

    Roll length used: 4
In 20.88 seconds
